NAME: cuum700.tsp
TYPE: TSP
COMMENT: User-generated TSP file
DIMENSION: 700
EDGE_WEIGHT_TYPE: EUC_2D
NODE_COORD_SECTION
1 138.0 327.0
2 235.0 286.0
3 460.0 652.0
4 25.0 228.0
5 128.0 607.0
6 345.0 235.0
7 168.0 599.0
8 672.0 223.0
9 673.0 193.0
10 565.0 477.0
11 495.0 514.0
12 551.0 513.0
13 654.0 133.0
14 139.0 645.0
15 4.0 36.0
16 489.0 543.0
17 203.0 287.0
18 150.0 522.0
19 283.0 695.0
20 317.0 303.0
21 68.0 46.0
22 288.0 449.0
23 408.0 217.0
24 572.0 643.0
25 70.0 605.0
26 339.0 171.0
27 588.0 120.0
28 106.0 631.0
29 8.0 108.0
30 423.0 88.0
31 413.0 578.0
32 646.0 432.0
33 596.0 423.0
34 197.0 388.0
35 11.0 119.0
36 489.0 18.0
37 294.0 445.0
38 23.0 173.0
39 594.0 116.0
40 104.0 549.0
41 154.0 91.0
42 124.0 496.0
43 64.0 291.0
44 402.0 289.0
45 80.0 108.0
46 380.0 465.0
47 534.0 408.0
48 368.0 593.0
49 40.0 321.0
50 381.0 85.0
51 79.0 445.0
52 293.0 113.0
53 683.0 508.0
54 367.0 227.0
55 591.0 94.0
56 159.0 218.0
57 381.0 189.0
58 584.0 479.0
59 578.0 170.0
60 91.0 371.0
61 510.0 525.0
62 700.0 291.0
63 692.0 47.0
64 200.0 208.0
65 22.0 407.0
66 691.0 10.0
67 401.0 181.0
68 619.0 82.0
69 171.0 20.0
70 587.0 156.0
71 5.0 603.0
72 576.0 676.0
73 682.0 592.0
74 190.0 278.0
75 381.0 320.0
76 311.0 497.0
77 556.0 482.0
78 340.0 428.0
79 322.0 83.0
80 206.0 255.0
81 648.0 68.0
82 574.0 440.0
83 554.0 307.0
84 616.0 55.0
85 397.0 446.0
86 139.0 376.0
87 296.0 150.0
88 62.0 553.0
89 672.0 695.0
90 220.0 71.0
91 615.0 473.0
92 437.0 279.0
93 273.0 477.0
94 343.0 63.0
95 43.0 233.0
96 385.0 429.0
97 538.0 173.0
98 509.0 229.0
99 382.0 296.0
100 248.0 254.0
101 104.0 412.0
102 604.0 590.0
103 23.0 492.0
104 526.0 88.0
105 215.0 470.0
106 108.0 411.0
107 594.0 81.0
108 121.0 541.0
109 337.0 307.0
110 692.0 488.0
111 437.0 426.0
112 370.0 624.0
113 12.0 73.0
114 312.0 104.0
115 458.0 450.0
116 563.0 224.0
117 673.0 564.0
118 634.0 260.0
119 384.0 606.0
120 514.0 455.0
121 233.0 32.0
122 247.0 467.0
123 313.0 37.0
124 66.0 282.0
125 570.0 183.0
126 72.0 362.0
127 367.0 16.0
128 606.0 385.0
129 138.0 482.0
130 163.0 675.0
131 105.0 322.0
132 241.0 234.0
133 328.0 204.0
134 146.0 280.0
135 422.0 152.0
136 18.0 686.0
137 210.0 63.0
138 79.0 170.0
139 463.0 352.0
140 491.0 483.0
141 363.0 304.0
142 580.0 319.0
143 458.0 670.0
144 72.0 4.0
145 139.0 189.0
146 459.0 269.0
147 462.0 229.0
148 422.0 544.0
149 667.0 425.0
150 620.0 397.0
151 114.0 519.0
152 519.0 208.0
153 493.0 339.0
154 584.0 521.0
155 73.0 518.0
156 181.0 363.0
157 4.0 44.0
158 63.0 664.0
159 687.0 441.0
160 528.0 323.0
161 372.0 383.0
162 378.0 576.0
163 526.0 273.0
164 22.0 119.0
165 138.0 88.0
166 348.0 520.0
167 185.0 30.0
168 665.0 628.0
169 616.0 256.0
170 276.0 364.0
171 306.0 85.0
172 570.0 142.0
173 304.0 658.0
174 425.0 491.0
175 642.0 299.0
176 671.0 379.0
177 473.0 8.0
178 214.0 582.0
179 638.0 190.0
180 317.0 559.0
181 201.0 334.0
182 611.0 53.0
183 61.0 258.0
184 70.0 249.0
185 171.0 588.0
186 84.0 222.0
187 467.0 52.0
188 173.0 350.0
189 18.0 270.0
190 630.0 138.0
191 667.0 65.0
192 291.0 6.0
193 160.0 18.0
194 302.0 355.0
195 469.0 616.0
196 445.0 534.0
197 126.0 370.0
198 298.0 591.0
199 436.0 212.0
200 244.0 4.0
201 566.0 43.0
202 461.0 636.0
203 52.0 233.0
204 513.0 25.0
205 548.0 104.0
206 700.0 339.0
207 326.0 79.0
208 444.0 505.0
209 65.0 405.0
210 622.0 116.0
211 342.0 357.0
212 457.0 623.0
213 618.0 518.0
214 677.0 485.0
215 622.0 397.0
216 552.0 101.0
217 327.0 103.0
218 364.0 18.0
219 34.0 236.0
220 172.0 280.0
221 659.0 445.0
222 347.0 410.0
223 162.0 83.0
224 86.0 13.0
225 163.0 36.0
226 180.0 280.0
227 678.0 6.0
228 281.0 72.0
229 58.0 276.0
230 413.0 465.0
231 287.0 222.0
232 266.0 173.0
233 241.0 610.0
234 7.0 79.0
235 38.0 517.0
236 365.0 478.0
237 143.0 624.0
238 92.0 478.0
239 680.0 289.0
240 421.0 518.0
241 320.0 289.0
242 361.0 499.0
243 675.0 111.0
244 44.0 376.0
245 143.0 445.0
246 544.0 401.0
247 615.0 119.0
248 517.0 409.0
249 644.0 365.0
250 60.0 430.0
251 215.0 167.0
252 652.0 140.0
253 339.0 423.0
254 32.0 27.0
255 66.0 586.0
256 462.0 199.0
257 510.0 506.0
258 655.0 236.0
259 647.0 695.0
260 213.0 697.0
261 16.0 89.0
262 60.0 533.0
263 475.0 131.0
264 657.0 570.0
265 63.0 28.0
266 693.0 504.0
267 253.0 212.0
268 571.0 412.0
269 354.0 173.0
270 368.0 362.0
271 287.0 299.0
272 5.0 560.0
273 453.0 698.0
274 482.0 255.0
275 495.0 350.0
276 19.0 355.0
277 392.0 140.0
278 198.0 355.0
279 684.0 323.0
280 552.0 673.0
281 621.0 461.0
282 319.0 553.0
283 213.0 292.0
284 667.0 614.0
285 195.0 133.0
286 53.0 370.0
287 138.0 443.0
288 570.0 369.0
289 612.0 301.0
290 566.0 265.0
291 529.0 69.0
292 374.0 607.0
293 182.0 475.0
294 682.0 259.0
295 457.0 591.0
296 198.0 322.0
297 306.0 284.0
298 552.0 111.0
299 253.0 217.0
300 382.0 525.0
301 417.0 679.0
302 651.0 693.0
303 694.0 308.0
304 454.0 535.0
305 386.0 661.0
306 266.0 440.0
307 295.0 336.0
308 225.0 617.0
309 338.0 413.0
310 261.0 43.0
311 542.0 175.0
312 97.0 204.0
313 405.0 519.0
314 1.0 693.0
315 107.0 559.0
316 144.0 13.0
317 352.0 644.0
318 413.0 376.0
319 362.0 569.0
320 74.0 295.0
321 25.0 508.0
322 590.0 227.0
323 347.0 115.0
324 625.0 180.0
325 93.0 114.0
326 367.0 124.0
327 540.0 250.0
328 347.0 11.0
329 583.0 147.0
330 458.0 588.0
331 627.0 425.0
332 443.0 474.0
333 517.0 277.0
334 479.0 396.0
335 327.0 130.0
336 124.0 641.0
337 275.0 528.0
338 478.0 409.0
339 333.0 153.0
340 624.0 690.0
341 432.0 689.0
342 540.0 153.0
343 147.0 637.0
344 534.0 546.0
345 584.0 223.0
346 52.0 624.0
347 605.0 370.0
348 351.0 28.0
349 33.0 47.0
350 540.0 423.0
351 431.0 195.0
352 119.0 104.0
353 282.0 656.0
354 25.0 229.0
355 45.0 322.0
356 229.0 437.0
357 123.0 156.0
358 648.0 15.0
359 246.0 212.0
360 634.0 162.0
361 103.0 466.0
362 27.0 35.0
363 576.0 495.0
364 584.0 627.0
365 506.0 547.0
366 567.0 515.0
367 532.0 690.0
368 235.0 286.0
369 421.0 398.0
370 272.0 213.0
371 267.0 152.0
372 425.0 341.0
373 464.0 343.0
374 430.0 113.0
375 508.0 652.0
376 142.0 308.0
377 670.0 306.0
378 227.0 188.0
379 402.0 509.0
380 158.0 312.0
381 422.0 301.0
382 261.0 498.0
383 129.0 524.0
384 112.0 438.0
385 248.0 1.0
386 462.0 98.0
387 337.0 281.0
388 371.0 409.0
389 336.0 349.0
390 526.0 542.0
391 432.0 3.0
392 201.0 638.0
393 110.0 650.0
394 596.0 468.0
395 588.0 543.0
396 676.0 252.0
397 277.0 550.0
398 638.0 597.0
399 247.0 479.0
400 286.0 432.0
401 361.0 121.0
402 455.0 517.0
403 601.0 82.0
404 517.0 45.0
405 698.0 466.0
406 149.0 10.0
407 623.0 398.0
408 410.0 370.0
409 55.0 609.0
410 109.0 415.0
411 607.0 419.0
412 58.0 151.0
413 511.0 215.0
414 377.0 410.0
415 300.0 20.0
416 122.0 185.0
417 574.0 60.0
418 454.0 535.0
419 670.0 437.0
420 84.0 659.0
421 321.0 205.0
422 25.0 651.0
423 488.0 531.0
424 130.0 562.0
425 421.0 700.0
426 114.0 609.0
427 418.0 395.0
428 312.0 271.0
429 535.0 59.0
430 42.0 569.0
431 404.0 138.0
432 534.0 570.0
433 431.0 658.0
434 390.0 181.0
435 279.0 501.0
436 512.0 663.0
437 449.0 134.0
438 340.0 38.0
439 679.0 345.0
440 58.0 678.0
441 156.0 303.0
442 351.0 10.0
443 400.0 697.0
444 56.0 18.0
445 395.0 150.0
446 504.0 628.0
447 315.0 665.0
448 572.0 444.0
449 246.0 43.0
450 102.0 125.0
451 243.0 423.0
452 429.0 532.0
453 438.0 197.0
454 156.0 421.0
455 225.0 21.0
456 462.0 563.0
457 46.0 49.0
458 278.0 642.0
459 567.0 95.0
460 442.0 695.0
461 113.0 402.0
462 538.0 498.0
463 205.0 478.0
464 559.0 409.0
465 1.0 607.0
466 580.0 104.0
467 389.0 385.0
468 332.0 11.0
469 348.0 268.0
470 295.0 608.0
471 227.0 126.0
472 424.0 1.0
473 415.0 72.0
474 84.0 662.0
475 300.0 37.0
476 353.0 204.0
477 548.0 574.0
478 663.0 148.0
479 406.0 482.0
480 184.0 635.0
481 155.0 193.0
482 690.0 690.0
483 208.0 100.0
484 355.0 598.0
485 122.0 114.0
486 269.0 183.0
487 555.0 530.0
488 126.0 202.0
489 519.0 672.0
490 409.0 584.0
491 475.0 64.0
492 494.0 341.0
493 389.0 198.0
494 443.0 76.0
495 37.0 413.0
496 563.0 192.0
497 545.0 417.0
498 613.0 101.0
499 205.0 281.0
500 402.0 446.0
501 415.0 9.0
502 146.0 6.0
503 381.0 284.0
504 354.0 226.0
505 137.0 98.0
506 612.0 325.0
507 173.0 300.0
508 300.0 454.0
509 425.0 299.0
510 11.0 216.0
511 471.0 137.0
512 302.0 620.0
513 197.0 435.0
514 686.0 15.0
515 215.0 247.0
516 113.0 557.0
517 568.0 420.0
518 31.0 143.0
519 260.0 253.0
520 257.0 327.0
521 622.0 83.0
522 395.0 150.0
523 430.0 331.0
524 49.0 19.0
525 567.0 108.0
526 73.0 399.0
527 105.0 449.0
528 453.0 417.0
529 281.0 79.0
530 350.0 405.0
531 351.0 411.0
532 463.0 405.0
533 369.0 631.0
534 61.0 72.0
535 514.0 190.0
536 650.0 153.0
537 83.0 644.0
538 285.0 277.0
539 145.0 199.0
540 147.0 346.0
541 374.0 123.0
542 152.0 342.0
543 26.0 164.0
544 288.0 511.0
545 319.0 272.0
546 80.0 417.0
547 421.0 61.0
548 642.0 172.0
549 503.0 53.0
550 488.0 205.0
551 670.0 545.0
552 355.0 572.0
553 497.0 301.0
554 505.0 419.0
555 277.0 259.0
556 68.0 699.0
557 616.0 50.0
558 256.0 325.0
559 186.0 56.0
560 195.0 260.0
561 165.0 674.0
562 179.0 682.0
563 89.0 101.0
564 671.0 216.0
565 540.0 384.0
566 264.0 431.0
567 237.0 511.0
568 378.0 581.0
569 265.0 296.0
570 624.0 447.0
571 42.0 116.0
572 443.0 14.0
573 355.0 48.0
574 25.0 122.0
575 247.0 43.0
576 234.0 26.0
577 237.0 536.0
578 82.0 475.0
579 126.0 693.0
580 460.0 109.0
581 498.0 629.0
582 67.0 125.0
583 63.0 262.0
584 617.0 502.0
585 483.0 530.0
586 441.0 484.0
587 405.0 192.0
588 284.0 327.0
589 698.0 552.0
590 339.0 303.0
591 292.0 398.0
592 81.0 274.0
593 155.0 641.0
594 341.0 430.0
595 489.0 557.0
596 286.0 59.0
597 641.0 644.0
598 131.0 409.0
599 367.0 28.0
600 496.0 486.0
601 248.0 319.0
602 276.0 451.0
603 679.0 304.0
604 659.0 187.0
605 302.0 630.0
606 513.0 248.0
607 53.0 593.0
608 75.0 86.0
609 102.0 583.0
610 628.0 673.0
611 104.0 380.0
612 219.0 398.0
613 664.0 455.0
614 286.0 299.0
615 123.0 480.0
616 669.0 662.0
617 80.0 12.0
618 354.0 538.0
619 286.0 283.0
620 454.0 20.0
621 367.0 73.0
622 586.0 314.0
623 53.0 153.0
624 333.0 47.0
625 427.0 378.0
626 325.0 260.0
627 287.0 523.0
628 434.0 432.0
629 677.0 620.0
630 9.0 99.0
631 51.0 100.0
632 694.0 427.0
633 550.0 317.0
634 141.0 597.0
635 443.0 637.0
636 167.0 333.0
637 697.0 35.0
638 466.0 82.0
639 143.0 432.0
640 531.0 92.0
641 60.0 373.0
642 340.0 40.0
643 677.0 406.0
644 134.0 582.0
645 493.0 686.0
646 447.0 496.0
647 421.0 419.0
648 232.0 656.0
649 444.0 171.0
650 626.0 266.0
651 103.0 344.0
652 689.0 402.0
653 55.0 359.0
654 650.0 260.0
655 108.0 686.0
656 685.0 691.0
657 197.0 587.0
658 351.0 230.0
659 105.0 390.0
660 410.0 9.0
661 277.0 483.0
662 208.0 453.0
663 515.0 508.0
664 424.0 455.0
665 94.0 331.0
666 14.0 129.0
667 124.0 99.0
668 139.0 681.0
669 648.0 497.0
670 99.0 61.0
671 691.0 515.0
672 574.0 99.0
673 208.0 353.0
674 270.0 265.0
675 388.0 187.0
676 612.0 693.0
677 401.0 352.0
678 203.0 324.0
679 201.0 68.0
680 539.0 382.0
681 583.0 318.0
682 377.0 74.0
683 420.0 119.0
684 416.0 537.0
685 597.0 20.0
686 168.0 303.0
687 213.0 670.0
688 388.0 143.0
689 125.0 666.0
690 5.0 80.0
691 301.0 359.0
692 181.0 362.0
693 131.0 94.0
694 619.0 403.0
695 234.0 253.0
696 427.0 273.0
697 550.0 673.0
698 522.0 501.0
699 677.0 617.0
700 314.0 551.0
EOF





